solution status: optimal solution found
objective value:                      129277.55463265
d11(0,0)                                            1 	(obj:0)
d11(1,1)                                            1 	(obj:0)
d11(1,2)                                            1 	(obj:0)
d11(2,3)                                            1 	(obj:0)
d11(2,4)                                            1 	(obj:0)
d11(2,5)                                            1 	(obj:0)
d11(2,6)                                            1 	(obj:0)
d11(3,7)                                            1 	(obj:0)
d11(3,9)                                            1 	(obj:0)
d12(3,8)                                            1 	(obj:0)
d12(3,10)                                           1 	(obj:0)
d12(3,12)                                           1 	(obj:0)
d12(3,14)                                           1 	(obj:0)
d21(2,3)                                            1 	(obj:0)
d21(3,7)                                            1 	(obj:0)
d21(3,8)                                            1 	(obj:0)
y2(3,8)                              1385.48851144895 	(obj:0)
y2(3,10)                             1385.48851144895 	(obj:0)
y2(3,12)                             1385.48851144895 	(obj:0)
y2(3,14)                             1385.48851144895 	(obj:0)
STE(1,1)                             11382.7501011112 	(obj:0)
STE(0,0)                                        14175 	(obj:0)
STE(1,2)                                        13041 	(obj:0)
STE(2,3)                             6563.24985111035 	(obj:0)
STE(2,4)                             8221.49974999917 	(obj:0)
STE(2,5)                             8221.49974999917 	(obj:0)
STE(2,6)                             9879.74964888794 	(obj:0)
STE(3,7)                             5429.24985111035 	(obj:0)
STE(3,8)                             6745.46393698686 	(obj:0)
STE(3,9)                                   7087.49975 	(obj:0)
STE(3,10)                            8403.71383587568 	(obj:0)
STE(3,11)                            7087.49974999917 	(obj:0)
STE(3,12)                            8403.71383587568 	(obj:0)
STE(3,13)                            8745.74964888794 	(obj:0)
STE(3,14)                            10061.9637347644 	(obj:0)
AVE(2)                               3315.65537776224 	(obj:0)
WB(3)                                3315.65799770399 	(obj:0)
y1(1,1)                              1492.42490899994 	(obj:0)
y1(2,3)                              3316.95022500075 	(obj:0)
y1(2,4)                              1824.52531600081 	(obj:0)
y1(2,5)                              3316.95022500075 	(obj:0)
y1(2,6)                              1824.52531600086 	(obj:0)
AVE(3)                               3315.65799770399 	(obj:0)
WB(1)                                3248.33172520918 	(obj:0)
WG(2)                                3315.65537776224 	(obj:10)
BG(1)                                4196.29249897957 	(obj:10)
BG(2)                                2742.39764774875 	(obj:10)
BG(3)                                2673.40993877551 	(obj:10)
AVE(1)                               3248.33172520918 	(obj:0)
